p cnf 7230 17
247 403 825 0
834 -835 0
480 -832 0
-480 -830 831 0
-831 832 0
828 829 0
458 -829 0
-458 -828 0
826 827 0
456 -827 0
-456 -826 0
830 -832 0
-480 -833 835 0
824 -825 0
-824 825 0
833 -835 0
480 -835 0
